# LAMMPS input file for mW water model - static energy calculation

# Name of log file
log mW.log

# Units and atom style
units real             # Use real units
atom_style full        # Uncharged point particles

# Read input
read_data structure.lmp

# Identify atom type 1 with the label mW
group mW type 1

# Set the mass of the first (and only) atom type.
mass 1 18.02

# mW atoms interact via Stillinger Weber with mW parameters
pair_style sw
pair_coeff * * ../mW.sw mW

# Things to print during minimisation
thermo_style custom step pe etotal press vol lx ly lz
thermo 1

# Run for one step to report energy of input structure
run 0


